c FILE:  par16-5-c.cnf
c
c SOURCE: James Crawford (jc@research.att.com)
c
c DESCRIPTION: Instance arises from the problem of learning the parity
c              function.  
c
c     parxx-y denotes a parity problem on xx bits.  y is simply the
c     intance number.
c
c     parxx-y-c denotes an instance identical to parxx-y except that
c     the instances have been simplified (to create an equivalent
c     problem). 
c
c NOTE: Satisfiable (checked for 8 and 16 size instances. All
c       instances are satisfiable by construction)
c
c NOTE: Number of clauses corrected August 3, 1993
c
c Converted from tableau format Tue Aug  3 09:50:07 EDT 1993
p cnf 341 1360
 -2 1
 0
 -3 -2
 0
 -5 4 3
 0
 -6 -5 3
 0
 5 -3
 0
 6 -3
 0
 -3 -2 -1
 0
 3 2 -1
 0
 -3 2 1
 0
 3 -2 1
 0
 -6 -5 -4
 0
 6 5 -4
 0
 -6 5 4
 0
 6 -5 4
 0
 -7 2
 0
 -8 -7
 0
 -9 5 8
 0
 -10 -9 8
 0
 9 -8
 0
 10 -8
 0
 -8 -7 -2
 0
 8 7 -2
 0
 -8 7 2
 0
 8 -7 2
 0
 -10 -9 -5
 0
 10 9 -5
 0
 -10 9 5
 0
 10 -9 5
 0
 -11 7
 0
 -12 -11
 0
 -13 9 12
 0
 -14 -13 12
 0
 13 -12
 0
 14 -12
 0
 -12 -11 -7
 0
 12 11 -7
 0
 -12 11 7
 0
 12 -11 7
 0
 -14 -13 -9
 0
 14 13 -9
 0
 -14 13 9
 0
 14 -13 9
 0
 -15 11
 0
 -16 -15
 0
 -17 13 16
 0
 -18 -17 16
 0
 17 -16
 0
 18 -16
 0
 -16 -15 -11
 0
 16 15 -11
 0
 -16 15 11
 0
 16 -15 11
 0
 -18 -17 -13
 0
 18 17 -13
 0
 -18 17 13
 0
 18 -17 13
 0
 -19 15
 0
 -20 -19
 0
 -21 17 20
 0
 -22 -21 20
 0
 21 -20
 0
 22 -20
 0
 -20 -19 -15
 0
 20 19 -15
 0
 -20 19 15
 0
 20 -19 15
 0
 -22 -21 -17
 0
 22 21 -17
 0
 -22 21 17
 0
 22 -21 17
 0
 -23 19
 0
 -24 -23
 0
 -25 21 24
 0
 -26 -25 24
 0
 25 -24
 0
 26 -24
 0
 -24 -23 -19
 0
 24 23 -19
 0
 -24 23 19
 0
 24 -23 19
 0
 -26 -25 -21
 0
 26 25 -21
 0
 -26 25 21
 0
 26 -25 21
 0
 -27 23
 0
 -28 -27
 0
 -29 25 28
 0
 -30 -29 28
 0
 29 -28
 0
 30 -28
 0
 -28 -27 -23
 0
 28 27 -23
 0
 -28 27 23
 0
 28 -27 23
 0
 -30 -29 -25
 0
 30 29 -25
 0
 -30 29 25
 0
 30 -29 25
 0
 -31 27
 0
 -32 -31
 0
 -33 29 32
 0
 -34 -33 32
 0
 33 -32
 0
 34 -32
 0
 -32 -31 -27
 0
 32 31 -27
 0
 -32 31 27
 0
 32 -31 27
 0
 -34 -33 -29
 0
 34 33 -29
 0
 -34 33 29
 0
 34 -33 29
 0
 -35 31
 0
 -36 -35
 0
 -37 33 36
 0
 -38 -37 36
 0
 37 -36
 0
 38 -36
 0
 -36 -35 -31
 0
 36 35 -31
 0
 -36 35 31
 0
 36 -35 31
 0
 -38 -37 -33
 0
 38 37 -33
 0
 -38 37 33
 0
 38 -37 33
 0
 -39 35
 0
 -40 -39
 0
 -41 37 40
 0
 -42 -41 40
 0
 41 -40
 0
 42 -40
 0
 -40 -39 -35
 0
 40 39 -35
 0
 -40 39 35
 0
 40 -39 35
 0
 -42 -41 -37
 0
 42 41 -37
 0
 -42 41 37
 0
 42 -41 37
 0
 -43 39
 0
 -44 -43
 0
 -45 41 44
 0
 -46 -45 44
 0
 45 -44
 0
 46 -44
 0
 -44 -43 -39
 0
 44 43 -39
 0
 -44 43 39
 0
 44 -43 39
 0
 -46 -45 -41
 0
 46 45 -41
 0
 -46 45 41
 0
 46 -45 41
 0
 -47 43
 0
 -48 -47
 0
 -49 45 48
 0
 -50 -49 48
 0
 49 -48
 0
 50 -48
 0
 -48 -47 -43
 0
 48 47 -43
 0
 -48 47 43
 0
 48 -47 43
 0
 -50 -49 -45
 0
 50 49 -45
 0
 -50 49 45
 0
 50 -49 45
 0
 -51 47
 0
 -52 -51
 0
 -53 49 52
 0
 -54 -53 52
 0
 53 -52
 0
 54 -52
 0
 -52 -51 -47
 0
 52 51 -47
 0
 -52 51 47
 0
 52 -51 47
 0
 -54 -53 -49
 0
 54 53 -49
 0
 -54 53 49
 0
 54 -53 49
 0
 -55 51
 0
 -56 -55
 0
 -57 53 56
 0
 -58 -57 56
 0
 57 -56
 0
 58 -56
 0
 -56 -55 -51
 0
 56 55 -51
 0
 -56 55 51
 0
 56 -55 51
 0
 -58 -57 -53
 0
 58 57 -53
 0
 -58 57 53
 0
 58 -57 53
 0
 -59 55
 0
 -60 -59
 0
 -61 57 60
 0
 -62 -61 60
 0
 61 -60
 0
 62 -60
 0
 -60 -59 -55
 0
 60 59 -55
 0
 -60 59 55
 0
 60 -59 55
 0
 -62 -61 -57
 0
 62 61 -57
 0
 -62 61 57
 0
 62 -61 57
 0
 -63 59
 0
 -64 -63
 0
 -65 61 64
 0
 -66 -65 64
 0
 65 -64
 0
 66 -64
 0
 -64 -63 -59
 0
 64 63 -59
 0
 -64 63 59
 0
 64 -63 59
 0
 -66 -65 -61
 0
 66 65 -61
 0
 -66 65 61
 0
 66 -65 61
 0
 -67 63
 0
 -68 -67
 0
 -69 65 68
 0
 -70 -69 68
 0
 69 -68
 0
 70 -68
 0
 -68 -67 -63
 0
 68 67 -63
 0
 -68 67 63
 0
 68 -67 63
 0
 -70 -69 -65
 0
 70 69 -65
 0
 -70 69 65
 0
 70 -69 65
 0
 -71 67
 0
 -72 -71
 0
 -73 69 72
 0
 -74 -73 72
 0
 73 -72
 0
 74 -72
 0
 -72 -71 -67
 0
 72 71 -67
 0
 -72 71 67
 0
 72 -71 67
 0
 -74 -73 -69
 0
 74 73 -69
 0
 -74 73 69
 0
 74 -73 69
 0
 -75 71
 0
 -76 -75
 0
 -77 73 76
 0
 -78 -77 76
 0
 77 -76
 0
 78 -76
 0
 -76 -75 -71
 0
 76 75 -71
 0
 -76 75 71
 0
 76 -75 71
 0
 -78 -77 -73
 0
 78 77 -73
 0
 -78 77 73
 0
 78 -77 73
 0
 -79 75
 0
 -80 -79
 0
 -81 77 80
 0
 -82 -81 80
 0
 81 -80
 0
 82 -80
 0
 -80 -79 -75
 0
 80 79 -75
 0
 -80 79 75
 0
 80 -79 75
 0
 -82 -81 -77
 0
 82 81 -77
 0
 -82 81 77
 0
 82 -81 77
 0
 -83 79
 0
 -84 -83
 0
 -85 81 84
 0
 -86 -85 84
 0
 85 -84
 0
 86 -84
 0
 -84 -83 -79
 0
 84 83 -79
 0
 -84 83 79
 0
 84 -83 79
 0
 -86 -85 -81
 0
 86 85 -81
 0
 -86 85 81
 0
 86 -85 81
 0
 -87 83
 0
 -88 -87
 0
 -89 85 88
 0
 -90 -89 88
 0
 89 -88
 0
 90 -88
 0
 -88 -87 -83
 0
 88 87 -83
 0
 -88 87 83
 0
 88 -87 83
 0
 -90 -89 -85
 0
 90 89 -85
 0
 -90 89 85
 0
 90 -89 85
 0
 -91 87
 0
 -92 -91
 0
 -93 89 92
 0
 -94 -93 92
 0
 93 -92
 0
 94 -92
 0
 -92 -91 -87
 0
 92 91 -87
 0
 -92 91 87
 0
 92 -91 87
 0
 -94 -93 -89
 0
 94 93 -89
 0
 -94 93 89
 0
 94 -93 89
 0
 -95 91
 0
 -96 -95
 0
 -97 93 96
 0
 -98 -97 96
 0
 97 -96
 0
 98 -96
 0
 -96 -95 -91
 0
 96 95 -91
 0
 -96 95 91
 0
 96 -95 91
 0
 -98 -97 -93
 0
 98 97 -93
 0
 -98 97 93
 0
 98 -97 93
 0
 -99 95
 0
 -100 -99
 0
 -101 97 100
 0
 -102 -101 100
 0
 101 -100
 0
 102 -100
 0
 -100 -99 -95
 0
 100 99 -95
 0
 -100 99 95
 0
 100 -99 95
 0
 -102 -101 -97
 0
 102 101 -97
 0
 -102 101 97
 0
 102 -101 97
 0
 -103 99
 0
 -104 -103
 0
 -105 101 104
 0
 -106 -105 104
 0
 105 -104
 0
 106 -104
 0
 -104 -103 -99
 0
 104 103 -99
 0
 -104 103 99
 0
 104 -103 99
 0
 -106 -105 -101
 0
 106 105 -101
 0
 -106 105 101
 0
 106 -105 101
 0
 -107 103
 0
 -108 -107
 0
 -109 105 108
 0
 -110 -109 108
 0
 109 -108
 0
 110 -108
 0
 -108 -107 -103
 0
 108 107 -103
 0
 -108 107 103
 0
 108 -107 103
 0
 -110 -109 -105
 0
 110 109 -105
 0
 -110 109 105
 0
 110 -109 105
 0
 -111 107
 0
 -112 -111
 0
 -113 109 112
 0
 -114 -113 112
 0
 113 -112
 0
 114 -112
 0
 -112 -111 -107
 0
 112 111 -107
 0
 -112 111 107
 0
 112 -111 107
 0
 -114 -113 -109
 0
 114 113 -109
 0
 -114 113 109
 0
 114 -113 109
 0
 -115 111
 0
 -116 -115
 0
 -117 113 116
 0
 -118 -117 116
 0
 117 -116
 0
 118 -116
 0
 -116 -115 -111
 0
 116 115 -111
 0
 -116 115 111
 0
 116 -115 111
 0
 -118 -117 -113
 0
 118 117 -113
 0
 -118 117 113
 0
 118 -117 113
 0
 115 -119
 0
 -120 -119
 0
 -121 117 120
 0
 -122 -121 120
 0
 121 -120
 0
 122 -120
 0
 -120 -115 -119
 0
 120 -115 119
 0
 -120 115 119
 0
 120 115 -119
 0
 -122 -121 -117
 0
 122 121 -117
 0
 -122 121 117
 0
 122 -121 117
 0
 121 119 -123
 0
 -124 119 -123
 0
 -119 123
 0
 124 -119
 0
 -124 -121 -123
 0
 124 -121 123
 0
 -124 121 123
 0
 124 121 -123
 0
 -126 -125 -6
 0
 126 125 -6
 0
 -126 125 6
 0
 126 -125 6
 0
 -128 -127 -125
 0
 128 127 -125
 0
 -128 127 125
 0
 128 -127 125
 0
 -130 -129 -127
 0
 130 129 -127
 0
 -130 129 127
 0
 130 -129 127
 0
 -132 -131 -129
 0
 132 131 -129
 0
 -132 131 129
 0
 132 -131 129
 0
 -134 -131 133
 0
 134 -131 -133
 0
 -134 131 -133
 0
 134 131 133
 0
 -136 -135 -10
 0
 136 135 -10
 0
 -136 135 10
 0
 136 -135 10
 0
 -138 -137 -135
 0
 138 137 -135
 0
 -138 137 135
 0
 138 -137 135
 0
 -140 -139 -137
 0
 140 139 -137
 0
 -140 139 137
 0
 140 -139 137
 0
 -132 -141 -139
 0
 132 141 -139
 0
 -132 141 139
 0
 132 -141 139
 0
 -143 -142 -141
 0
 143 142 -141
 0
 -143 142 141
 0
 143 -142 141
 0
 -134 -144 -142
 0
 134 144 -142
 0
 -134 144 142
 0
 134 -144 142
 0
 -146 -145 -144
 0
 146 145 -144
 0
 -146 145 144
 0
 146 -145 144
 0
 -133 -145 147
 0
 133 -145 -147
 0
 -133 145 -147
 0
 133 145 147
 0
 -134 -148 -14
 0
 134 148 -14
 0
 -134 148 14
 0
 134 -148 14
 0
 -146 -149 -148
 0
 146 149 -148
 0
 -146 149 148
 0
 146 -149 148
 0
 -133 -150 -149
 0
 133 150 -149
 0
 -133 150 149
 0
 133 -150 149
 0
 -126 -151 -18
 0
 126 151 -18
 0
 -126 151 18
 0
 126 -151 18
 0
 -136 -152 -151
 0
 136 152 -151
 0
 -136 152 151
 0
 136 -152 151
 0
 -138 -153 -152
 0
 138 153 -152
 0
 -138 153 152
 0
 138 -153 152
 0
 -155 -154 -153
 0
 155 154 -153
 0
 -155 154 153
 0
 155 -154 153
 0
 -128 -156 -154
 0
 128 156 -154
 0
 -128 156 154
 0
 128 -156 154
 0
 -130 -157 -156
 0
 130 157 -156
 0
 -130 157 156
 0
 130 -157 156
 0
 -132 -158 -157
 0
 132 158 -157
 0
 -132 158 157
 0
 132 -158 157
 0
 -159 -158 147
 0
 159 -158 -147
 0
 -159 158 -147
 0
 159 158 147
 0
 -161 -160 -22
 0
 161 160 -22
 0
 -161 160 22
 0
 161 -160 22
 0
 -140 -162 -160
 0
 140 162 -160
 0
 -140 162 160
 0
 140 -162 160
 0
 -128 -163 -162
 0
 128 163 -162
 0
 -128 163 162
 0
 128 -163 162
 0
 -130 -164 -163
 0
 130 164 -163
 0
 -130 164 163
 0
 130 -164 163
 0
 -132 -165 -164
 0
 132 165 -164
 0
 -132 165 164
 0
 132 -165 164
 0
 -134 -166 -165
 0
 134 166 -165
 0
 -134 166 165
 0
 134 -166 165
 0
 -146 -167 -166
 0
 146 167 -166
 0
 -146 167 166
 0
 146 -167 166
 0
 -159 -168 -167
 0
 159 168 -167
 0
 -159 168 167
 0
 159 -168 167
 0
 -133 -168 147
 0
 133 -168 -147
 0
 -133 168 -147
 0
 133 168 147
 0
 -155 -169 -26
 0
 155 169 -26
 0
 -155 169 26
 0
 155 -169 26
 0
 -140 -170 -169
 0
 140 170 -169
 0
 -140 170 169
 0
 140 -170 169
 0
 -132 -171 -170
 0
 132 171 -170
 0
 -132 171 170
 0
 132 -171 170
 0
 -134 -172 -171
 0
 134 172 -171
 0
 -134 172 171
 0
 134 -172 171
 0
 -146 -172 150
 0
 146 -172 -150
 0
 -146 172 -150
 0
 146 172 150
 0
 -126 -173 -30
 0
 126 173 -30
 0
 -126 173 30
 0
 126 -173 30
 0
 -136 -174 -173
 0
 136 174 -173
 0
 -136 174 173
 0
 136 -174 173
 0
 -143 -175 -174
 0
 143 175 -174
 0
 -143 175 174
 0
 143 -175 174
 0
 -134 -176 -175
 0
 134 176 -175
 0
 -134 176 175
 0
 134 -176 175
 0
 -133 -176 147
 0
 133 -176 -147
 0
 -133 176 -147
 0
 133 176 147
 0
 -138 -177 -34
 0
 138 177 -34
 0
 -138 177 34
 0
 138 -177 34
 0
 -155 -178 -177
 0
 155 178 -177
 0
 -155 178 177
 0
 155 -178 177
 0
 -130 -179 -178
 0
 130 179 -178
 0
 -130 179 178
 0
 130 -179 178
 0
 -143 -180 -179
 0
 143 180 -179
 0
 -143 180 179
 0
 143 -180 179
 0
 -134 -181 -180
 0
 134 181 -180
 0
 -134 181 180
 0
 134 -181 180
 0
 -159 -182 -181
 0
 159 182 -181
 0
 -159 182 181
 0
 159 -182 181
 0
 -133 -182 -150
 0
 133 -182 150
 0
 -133 182 150
 0
 133 182 -150
 0
 -126 -183 -38
 0
 126 183 -38
 0
 -126 183 38
 0
 126 -183 38
 0
 -138 -184 -183
 0
 138 184 -183
 0
 -138 184 183
 0
 138 -184 183
 0
 -155 -185 -184
 0
 155 185 -184
 0
 -155 185 184
 0
 155 -185 184
 0
 -140 -186 -185
 0
 140 186 -185
 0
 -140 186 185
 0
 140 -186 185
 0
 -128 -187 -186
 0
 128 187 -186
 0
 -128 187 186
 0
 128 -187 186
 0
 -159 -188 -187
 0
 159 188 -187
 0
 -159 188 187
 0
 159 -188 187
 0
 -147 -188 150
 0
 147 -188 -150
 0
 -147 188 -150
 0
 147 188 150
 0
 -126 -189 -42
 0
 126 189 -42
 0
 -126 189 42
 0
 126 -189 42
 0
 -136 -190 -189
 0
 136 190 -189
 0
 -136 190 189
 0
 136 -190 189
 0
 -155 -191 -190
 0
 155 191 -190
 0
 -155 191 190
 0
 155 -191 190
 0
 -140 -192 -191
 0
 140 192 -191
 0
 -140 192 191
 0
 140 -192 191
 0
 -132 -193 -192
 0
 132 193 -192
 0
 -132 193 192
 0
 132 -193 192
 0
 -134 -194 -193
 0
 134 194 -193
 0
 -134 194 193
 0
 134 -194 193
 0
 -146 -194 133
 0
 146 -194 -133
 0
 -146 194 -133
 0
 146 194 133
 0
 -126 -195 -46
 0
 126 195 -46
 0
 -126 195 46
 0
 126 -195 46
 0
 -136 -196 -195
 0
 136 196 -195
 0
 -136 196 195
 0
 136 -196 195
 0
 -138 -197 -196
 0
 138 197 -196
 0
 -138 197 196
 0
 138 -197 196
 0
 -140 -198 -197
 0
 140 198 -197
 0
 -140 198 197
 0
 140 -198 197
 0
 -128 -199 -198
 0
 128 199 -198
 0
 -128 199 198
 0
 128 -199 198
 0
 -130 -199 133
 0
 130 -199 -133
 0
 -130 199 -133
 0
 130 199 133
 0
 -161 -200 -50
 0
 161 200 -50
 0
 -161 200 50
 0
 161 -200 50
 0
 -138 -201 -200
 0
 138 201 -200
 0
 -138 201 200
 0
 138 -201 200
 0
 -155 -202 -201
 0
 155 202 -201
 0
 -155 202 201
 0
 155 -202 201
 0
 -140 -203 -202
 0
 140 203 -202
 0
 -140 203 202
 0
 140 -203 202
 0
 -128 -204 -203
 0
 128 204 -203
 0
 -128 204 203
 0
 128 -204 203
 0
 -146 -205 -204
 0
 146 205 -204
 0
 -146 205 204
 0
 146 -205 204
 0
 -159 -206 -205
 0
 159 206 -205
 0
 -159 206 205
 0
 159 -206 205
 0
 -147 -150 -206
 0
 147 150 -206
 0
 -147 150 206
 0
 147 -150 206
 0
 -136 -207 -54
 0
 136 207 -54
 0
 -136 207 54
 0
 136 -207 54
 0
 -161 -208 -207
 0
 161 208 -207
 0
 -161 208 207
 0
 161 -208 207
 0
 -140 -209 -208
 0
 140 209 -208
 0
 -140 209 208
 0
 140 -209 208
 0
 -128 -210 -209
 0
 128 210 -209
 0
 -128 210 209
 0
 128 -210 209
 0
 -134 -211 -210
 0
 134 211 -210
 0
 -134 211 210
 0
 134 -211 210
 0
 -133 -212 -211
 0
 133 212 -211
 0
 -133 212 211
 0
 133 -212 211
 0
 -147 -212 150
 0
 147 -212 -150
 0
 -147 212 -150
 0
 147 212 150
 0
 -126 -213 -58
 0
 126 213 -58
 0
 -126 213 58
 0
 126 -213 58
 0
 -136 -214 -213
 0
 136 214 -213
 0
 -136 214 213
 0
 136 -214 213
 0
 -138 -215 -214
 0
 138 215 -214
 0
 -138 215 214
 0
 138 -215 214
 0
 -155 -216 -215
 0
 155 216 -215
 0
 -155 216 215
 0
 155 -216 215
 0
 -140 -217 -216
 0
 140 217 -216
 0
 -140 217 216
 0
 140 -217 216
 0
 -130 -218 -217
 0
 130 218 -217
 0
 -130 218 217
 0
 130 -218 217
 0
 -134 -219 -218
 0
 134 219 -218
 0
 -134 219 218
 0
 134 -219 218
 0
 -146 -219 150
 0
 146 -219 -150
 0
 -146 219 -150
 0
 146 219 150
 0
 -126 -220 -62
 0
 126 220 -62
 0
 -126 220 62
 0
 126 -220 62
 0
 -138 -221 -220
 0
 138 221 -220
 0
 -138 221 220
 0
 138 -221 220
 0
 -155 -222 -221
 0
 155 222 -221
 0
 -155 222 221
 0
 155 -222 221
 0
 -128 -223 -222
 0
 128 223 -222
 0
 -128 223 222
 0
 128 -223 222
 0
 -134 -224 -223
 0
 134 224 -223
 0
 -134 224 223
 0
 134 -224 223
 0
 -159 -150 -224
 0
 159 150 -224
 0
 -159 150 224
 0
 159 -150 224
 0
 -161 -225 -66
 0
 161 225 -66
 0
 -161 225 66
 0
 161 -225 66
 0
 -155 -226 -225
 0
 155 226 -225
 0
 -155 226 225
 0
 155 -226 225
 0
 -130 -227 -226
 0
 130 227 -226
 0
 -130 227 226
 0
 130 -227 226
 0
 -146 -228 -227
 0
 146 228 -227
 0
 -146 228 227
 0
 146 -228 227
 0
 -159 -229 -228
 0
 159 229 -228
 0
 -159 229 228
 0
 159 -229 228
 0
 -133 -229 -150
 0
 133 -229 150
 0
 -133 229 150
 0
 133 229 -150
 0
 -136 -230 -70
 0
 136 230 -70
 0
 -136 230 70
 0
 136 -230 70
 0
 -138 -231 -230
 0
 138 231 -230
 0
 -138 231 230
 0
 138 -231 230
 0
 -155 -232 -231
 0
 155 232 -231
 0
 -155 232 231
 0
 155 -232 231
 0
 -140 -233 -232
 0
 140 233 -232
 0
 -140 233 232
 0
 140 -233 232
 0
 -130 -234 -233
 0
 130 234 -233
 0
 -130 234 233
 0
 130 -234 233
 0
 -143 -235 -234
 0
 143 235 -234
 0
 -143 235 234
 0
 143 -235 234
 0
 -159 -236 -235
 0
 159 236 -235
 0
 -159 236 235
 0
 159 -236 235
 0
 -133 -236 -150
 0
 133 -236 150
 0
 -133 236 150
 0
 133 236 -150
 0
 -161 -237 -74
 0
 161 237 -74
 0
 -161 237 74
 0
 161 -237 74
 0
 -155 -238 -237
 0
 155 238 -237
 0
 -155 238 237
 0
 155 -238 237
 0
 -140 -239 -238
 0
 140 239 -238
 0
 -140 239 238
 0
 140 -239 238
 0
 -128 -240 -239
 0
 128 240 -239
 0
 -128 240 239
 0
 128 -240 239
 0
 -130 -241 -240
 0
 130 241 -240
 0
 -130 241 240
 0
 130 -241 240
 0
 -134 -242 -241
 0
 134 242 -241
 0
 -134 242 241
 0
 134 -242 241
 0
 -146 -242 150
 0
 146 -242 -150
 0
 -146 242 -150
 0
 146 242 150
 0
 -136 -243 -78
 0
 136 243 -78
 0
 -136 243 78
 0
 136 -243 78
 0
 -161 -244 -243
 0
 161 244 -243
 0
 -161 244 243
 0
 161 -244 243
 0
 -138 -245 -244
 0
 138 245 -244
 0
 -138 245 244
 0
 138 -245 244
 0
 -155 -246 -245
 0
 155 246 -245
 0
 -155 246 245
 0
 155 -246 245
 0
 -140 -247 -246
 0
 140 247 -246
 0
 -140 247 246
 0
 140 -247 246
 0
 -130 -248 -247
 0
 130 248 -247
 0
 -130 248 247
 0
 130 -248 247
 0
 -132 -249 -248
 0
 132 249 -248
 0
 -132 249 248
 0
 132 -249 248
 0
 -143 -250 -249
 0
 143 250 -249
 0
 -143 250 249
 0
 143 -250 249
 0
 -146 -251 -250
 0
 146 251 -250
 0
 -146 251 250
 0
 146 -251 250
 0
 -159 -251 -133
 0
 159 -251 133
 0
 -159 251 133
 0
 159 251 -133
 0
 -136 -252 -82
 0
 136 252 -82
 0
 -136 252 82
 0
 136 -252 82
 0
 -161 -253 -252
 0
 161 253 -252
 0
 -161 253 252
 0
 161 -253 252
 0
 -138 -254 -253
 0
 138 254 -253
 0
 -138 254 253
 0
 138 -254 253
 0
 -155 -255 -254
 0
 155 255 -254
 0
 -155 255 254
 0
 155 -255 254
 0
 -130 -256 -255
 0
 130 256 -255
 0
 -130 256 255
 0
 130 -256 255
 0
 -132 -257 -256
 0
 132 257 -256
 0
 -132 257 256
 0
 132 -257 256
 0
 -133 -150 -257
 0
 133 150 -257
 0
 -133 150 257
 0
 133 -150 257
 0
 -126 -258 -86
 0
 126 258 -86
 0
 -126 258 86
 0
 126 -258 86
 0
 -161 -259 -258
 0
 161 259 -258
 0
 -161 259 258
 0
 161 -259 258
 0
 -155 -260 -259
 0
 155 260 -259
 0
 -155 260 259
 0
 155 -260 259
 0
 -140 -261 -260
 0
 140 261 -260
 0
 -140 261 260
 0
 140 -261 260
 0
 -128 -262 -261
 0
 128 262 -261
 0
 -128 262 261
 0
 128 -262 261
 0
 -132 -263 -262
 0
 132 263 -262
 0
 -132 263 262
 0
 132 -263 262
 0
 -143 -264 -263
 0
 143 264 -263
 0
 -143 264 263
 0
 143 -264 263
 0
 -134 -264 146
 0
 134 -264 -146
 0
 -134 264 -146
 0
 134 264 146
 0
 -126 -265 -90
 0
 126 265 -90
 0
 -126 265 90
 0
 126 -265 90
 0
 -136 -266 -265
 0
 136 266 -265
 0
 -136 266 265
 0
 136 -266 265
 0
 -155 -267 -266
 0
 155 267 -266
 0
 -155 267 266
 0
 155 -267 266
 0
 -140 -268 -267
 0
 140 268 -267
 0
 -140 268 267
 0
 140 -268 267
 0
 -128 -269 -268
 0
 128 269 -268
 0
 -128 269 268
 0
 128 -269 268
 0
 -130 -270 -269
 0
 130 270 -269
 0
 -130 270 269
 0
 130 -270 269
 0
 -143 -271 -270
 0
 143 271 -270
 0
 -143 271 270
 0
 143 -271 270
 0
 -146 -272 -271
 0
 146 272 -271
 0
 -146 272 271
 0
 146 -272 271
 0
 -159 -272 -147
 0
 159 -272 147
 0
 -159 272 147
 0
 159 272 -147
 0
 -126 -273 -94
 0
 126 273 -94
 0
 -126 273 94
 0
 126 -273 94
 0
 -161 -274 -273
 0
 161 274 -273
 0
 -161 274 273
 0
 161 -274 273
 0
 -138 -275 -274
 0
 138 275 -274
 0
 -138 275 274
 0
 138 -275 274
 0
 -155 -276 -275
 0
 155 276 -275
 0
 -155 276 275
 0
 155 -276 275
 0
 -140 -277 -276
 0
 140 277 -276
 0
 -140 277 276
 0
 140 -277 276
 0
 -128 -278 -277
 0
 128 278 -277
 0
 -128 278 277
 0
 128 -278 277
 0
 -134 -279 -278
 0
 134 279 -278
 0
 -134 279 278
 0
 134 -279 278
 0
 -146 -279 133
 0
 146 -279 -133
 0
 -146 279 -133
 0
 146 279 133
 0
 -126 -280 -98
 0
 126 280 -98
 0
 -126 280 98
 0
 126 -280 98
 0
 -136 -281 -280
 0
 136 281 -280
 0
 -136 281 280
 0
 136 -281 280
 0
 -155 -282 -281
 0
 155 282 -281
 0
 -155 282 281
 0
 155 -282 281
 0
 -140 -283 -282
 0
 140 283 -282
 0
 -140 283 282
 0
 140 -283 282
 0
 -132 -284 -283
 0
 132 284 -283
 0
 -132 284 283
 0
 132 -284 283
 0
 -146 -285 -284
 0
 146 285 -284
 0
 -146 285 284
 0
 146 -285 284
 0
 -159 -285 -147
 0
 159 -285 147
 0
 -159 285 147
 0
 159 285 -147
 0
 -126 -286 -102
 0
 126 286 -102
 0
 -126 286 102
 0
 126 -286 102
 0
 -161 -287 -286
 0
 161 287 -286
 0
 -161 287 286
 0
 161 -287 286
 0
 -138 -288 -287
 0
 138 288 -287
 0
 -138 288 287
 0
 138 -288 287
 0
 -140 -289 -288
 0
 140 289 -288
 0
 -140 289 288
 0
 140 -289 288
 0
 -128 -290 -289
 0
 128 290 -289
 0
 -128 290 289
 0
 128 -290 289
 0
 -130 -291 -290
 0
 130 291 -290
 0
 -130 291 290
 0
 130 -291 290
 0
 -132 -292 -291
 0
 132 292 -291
 0
 -132 292 291
 0
 132 -292 291
 0
 -134 -293 -292
 0
 134 293 -292
 0
 -134 293 292
 0
 134 -293 292
 0
 -159 -150 -293
 0
 159 150 -293
 0
 -159 150 293
 0
 159 -150 293
 0
 -126 -294 -106
 0
 126 294 -106
 0
 -126 294 106
 0
 126 -294 106
 0
 -136 -295 -294
 0
 136 295 -294
 0
 -136 295 294
 0
 136 -295 294
 0
 -140 -296 -295
 0
 140 296 -295
 0
 -140 296 295
 0
 140 -296 295
 0
 -128 -297 -296
 0
 128 297 -296
 0
 -128 297 296
 0
 128 -297 296
 0
 -130 -298 -297
 0
 130 298 -297
 0
 -130 298 297
 0
 130 -298 297
 0
 -143 -299 -298
 0
 143 299 -298
 0
 -143 299 298
 0
 143 -299 298
 0
 -146 -300 -299
 0
 146 300 -299
 0
 -146 300 299
 0
 146 -300 299
 0
 -159 -301 -300
 0
 159 301 -300
 0
 -159 301 300
 0
 159 -301 300
 0
 -133 -302 -301
 0
 133 302 -301
 0
 -133 302 301
 0
 133 -302 301
 0
 -147 -302 150
 0
 147 -302 -150
 0
 -147 302 -150
 0
 147 302 150
 0
 -126 -303 -110
 0
 126 303 -110
 0
 -126 303 110
 0
 126 -303 110
 0
 -161 -304 -303
 0
 161 304 -303
 0
 -161 304 303
 0
 161 -304 303
 0
 -138 -305 -304
 0
 138 305 -304
 0
 -138 305 304
 0
 138 -305 304
 0
 -140 -306 -305
 0
 140 306 -305
 0
 -140 306 305
 0
 140 -306 305
 0
 -132 -307 -306
 0
 132 307 -306
 0
 -132 307 306
 0
 132 -307 306
 0
 -134 -308 -307
 0
 134 308 -307
 0
 -134 308 307
 0
 134 -308 307
 0
 -146 -309 -308
 0
 146 309 -308
 0
 -146 309 308
 0
 146 -309 308
 0
 -159 -309 -133
 0
 159 -309 133
 0
 -159 309 133
 0
 159 309 -133
 0
 -136 -310 -114
 0
 136 310 -114
 0
 -136 310 114
 0
 136 -310 114
 0
 -161 -311 -310
 0
 161 311 -310
 0
 -161 311 310
 0
 161 -311 310
 0
 -138 -312 -311
 0
 138 312 -311
 0
 -138 312 311
 0
 138 -312 311
 0
 -140 -313 -312
 0
 140 313 -312
 0
 -140 313 312
 0
 140 -313 312
 0
 -128 -314 -313
 0
 128 314 -313
 0
 -128 314 313
 0
 128 -314 313
 0
 -132 -315 -314
 0
 132 315 -314
 0
 -132 315 314
 0
 132 -315 314
 0
 -143 -316 -315
 0
 143 316 -315
 0
 -143 316 315
 0
 143 -316 315
 0
 -134 -317 -316
 0
 134 317 -316
 0
 -134 317 316
 0
 134 -317 316
 0
 -146 -317 159
 0
 146 -317 -159
 0
 -146 317 -159
 0
 146 317 159
 0
 -126 -318 -118
 0
 126 318 -118
 0
 -126 318 118
 0
 126 -318 118
 0
 -136 -319 -318
 0
 136 319 -318
 0
 -136 319 318
 0
 136 -319 318
 0
 -155 -320 -319
 0
 155 320 -319
 0
 -155 320 319
 0
 155 -320 319
 0
 -140 -321 -320
 0
 140 321 -320
 0
 -140 321 320
 0
 140 -321 320
 0
 -130 -322 -321
 0
 130 322 -321
 0
 -130 322 321
 0
 130 -322 321
 0
 -132 -323 -322
 0
 132 323 -322
 0
 -132 323 322
 0
 132 -323 322
 0
 -143 -324 -323
 0
 143 324 -323
 0
 -143 324 323
 0
 143 -324 323
 0
 -134 -324 -150
 0
 134 -324 150
 0
 -134 324 150
 0
 134 324 -150
 0
 -138 -325 -122
 0
 138 325 -122
 0
 -138 325 122
 0
 138 -325 122
 0
 -155 -326 -325
 0
 155 326 -325
 0
 -155 326 325
 0
 155 -326 325
 0
 -140 -327 -326
 0
 140 327 -326
 0
 -140 327 326
 0
 140 -327 326
 0
 -130 -328 -327
 0
 130 328 -327
 0
 -130 328 327
 0
 130 -328 327
 0
 -134 -328 150
 0
 134 -328 -150
 0
 -134 328 -150
 0
 134 328 150
 0
 -126 -329 -124
 0
 126 329 -124
 0
 -126 329 124
 0
 126 -329 124
 0
 -136 -330 -329
 0
 136 330 -329
 0
 -136 330 329
 0
 136 -330 329
 0
 -138 -331 -330
 0
 138 331 -330
 0
 -138 331 330
 0
 138 -331 330
 0
 -140 -332 -331
 0
 140 332 -331
 0
 -140 332 331
 0
 140 -332 331
 0
 -128 -333 -332
 0
 128 333 -332
 0
 -128 333 332
 0
 128 -333 332
 0
 -143 -334 -333
 0
 143 334 -333
 0
 -143 334 333
 0
 143 -334 333
 0
 -134 -335 -334
 0
 134 335 -334
 0
 -134 335 334
 0
 134 -335 334
 0
 -146 -336 -335
 0
 146 336 -335
 0
 -146 336 335
 0
 146 -336 335
 0
 -159 -337 -336
 0
 159 337 -336
 0
 -159 337 336
 0
 159 -337 336
 0
 -147 -150 -337
 0
 147 150 -337
 0
 -147 150 337
 0
 147 -150 337
 0
 -126 -338 -123
 0
 126 338 -123
 0
 -126 338 123
 0
 126 -338 123
 0
 -161 -339 -338
 0
 161 339 -338
 0
 -161 339 338
 0
 161 -339 338
 0
 -128 -340 -339
 0
 128 340 -339
 0
 -128 340 339
 0
 128 -340 339
 0
 -130 -341 -340
 0
 130 341 -340
 0
 -130 341 340
 0
 130 -341 340
 0
 -134 -341 133
 0
 134 -341 -133
 0
 -134 341 -133
 0
 134 341 133
 0

